cases/pglib-opf/pglib_opf_case39_epri.m
ipopt
DCP
[info | PowerModels]: removing 1 cost terms from generator 8: [3155.0181, 0.0]
[info | PowerModels]: removing 1 cost terms from generator 4: [3484.4642999999996, 0.0]
[info | PowerModels]: removing 1 cost terms from generator 1: [672.4778, 0.0]
[info | PowerModels]: removing 1 cost terms from generator 5: [2465.2994, 0.0]
[info | PowerModels]: removing 1 cost terms from generator 2: [1470.7625, 0.0]
[info | PowerModels]: removing 1 cost terms from generator 6: [3230.6483, 0.0]
[info | PowerModels]: removing 1 cost terms from generator 7: [1815.7477, 0.0]
[info | PowerModels]: removing 1 cost terms from generator 10: [2743.4444, 0.0]
[info | PowerModels]: removing 1 cost terms from generator 9: [2250.3168, 0.0]
[info | PowerModels]: removing 1 cost terms from generator 3: [2480.4734, 0.0]

******************************************************************************
This program contains Ipopt, a library for large-scale nonlinear optimization.
 Ipopt is released as open source code under the Eclipse Public License (EPL).
         For more information visit http://projects.coin-or.org/Ipopt
******************************************************************************

This is Ipopt version 3.13.2, running with linear solver mumps.
NOTE: Other linear solvers might be more efficient (see Ipopt documentation).

Number of nonzeros in equality constraint Jacobian...:      241
Number of nonzeros in inequality constraint Jacobian.:      184
Number of nonzeros in Lagrangian Hessian.............:        0

Total number of variables............................:       95
                     variables with only lower bounds:        0
                variables with lower and upper bounds:       56
                     variables with only upper bounds:        0
Total number of equality constraints.................:       86
Total number of inequality constraints...............:       92
        inequality constraints with only lower bounds:       46
   inequality constraints with lower and upper bounds:        0
        inequality constraints with only upper bounds:       46

iter    objective    inf_pr   inf_du lg(mu)  ||d||  lg(rg) alpha_du alpha_pr  ls
   0  2.3768629e+02 1.10e+01 1.96e+01  -1.0 0.00e+00    -  0.00e+00 0.00e+00   0
   1  1.1876921e+05 2.10e+00 5.41e+02  -1.0 6.75e+00    -  1.49e-03 8.09e-01h  1
   2  1.1084070e+05 2.00e+00 5.13e+02  -1.0 5.97e+01    -  4.27e-02 5.06e-02f  1
   3  1.0966347e+05 1.93e+00 4.95e+02  -1.0 2.48e+01    -  9.77e-02 3.52e-02f  1
   4  1.0965691e+05 1.67e+00 4.30e+02  -1.0 1.88e+01    -  1.51e-01 1.30e-01h  1
   5  1.1122630e+05 1.47e+00 3.79e+02  -1.0 2.01e+01    -  2.03e-01 1.20e-01h  1
   6  1.1286142e+05 1.36e+00 3.50e+02  -1.0 1.07e+01    -  6.41e-01 7.81e-02h  1
   7  1.2339836e+05 7.42e-01 1.92e+02  -1.0 4.62e+00    -  7.60e-01 4.53e-01h  1
   8  1.2547766e+05 6.23e-01 1.61e+02  -1.0 2.79e+00    -  1.00e+00 1.61e-01h  1
   9  1.2582561e+05 6.03e-01 1.56e+02  -1.0 1.99e+00    -  1.93e-02 3.12e-02h  1
iter    objective    inf_pr   inf_du lg(mu)  ||d||  lg(rg) alpha_du alpha_pr  ls
  10  1.3610911e+05 4.22e-02 1.09e+01  -1.0 2.29e+00    -  9.60e-01 9.30e-01h  1
  11  1.3627434e+05 3.33e-02 2.07e+01  -1.0 1.72e-01    -  5.42e-01 2.12e-01h  1
  12  1.3692111e+05 7.11e-15 1.00e-06  -1.0 1.52e-01    -  1.00e+00 1.00e+00h  1
  13  1.3690125e+05 7.11e-15 5.78e+00  -1.7 2.68e-02    -  1.00e+00 6.95e-01f  1
  14  1.3689608e+05 7.11e-15 2.00e-07  -1.7 7.01e-03    -  1.00e+00 1.00e+00f  1
  15  1.3688980e+05 7.11e-15 1.54e-03  -3.8 7.91e-03    -  9.94e-01 9.92e-01f  1
  16  1.3688974e+05 1.42e-14 1.50e-09  -3.8 1.33e-04    -  1.00e+00 1.00e+00f  1
  17  1.3688969e+05 7.11e-15 1.84e-11  -5.7 5.76e-05    -  1.00e+00 1.00e+00f  1
  18  1.3688969e+05 7.11e-15 3.03e-14  -8.6 7.19e-07    -  1.00e+00 1.00e+00f  1

Number of Iterations....: 18

                                   (scaled)                 (unscaled)
Objective...............:   3.9285720753379096e+03    1.3688969146491855e+05
Dual infeasibility......:   3.0271902555332889e-14    1.0548136374713622e-12
Constraint violation....:   3.5527136788005009e-15    7.1054273576010019e-15
Complementarity.........:   2.5138126330740757e-09    8.7592903768356147e-08
Overall NLP error.......:   2.5138126330740757e-09    8.7592903768356147e-08


Number of objective function evaluations             = 19
Number of objective gradient evaluations             = 19
Number of equality constraint evaluations            = 19
Number of inequality constraint evaluations          = 19
Number of equality constraint Jacobian evaluations   = 1
Number of inequality constraint Jacobian evaluations = 1
Number of Lagrangian Hessian evaluations             = 1
Total CPU secs in IPOPT (w/o function evaluations)   =      0.267
Total CPU secs in NLP function evaluations           =      0.211

EXIT: Optimal Solution Found.
Time to Solution........:1.1538519859313965
